NAME = SAfile180,
TOURSIZE = 180,
LENGTH = 1990,
155,41,83,171,64,66,36,37,23,70,77,89,118,44,24,137,62,72,82,85,60,14,168,88,102,129,154,87,86,56,157,108,144,133,25,51,47,178,7,120,115,165,160,92,95,109,30,29,16,12,45,172,116,158,135,52,43,139,152,35,107,93,8,21,42,138,46,40,147,15,61,162,79,48,94,26,101,126,127,146,143,100,65,112,81,166,179,121,80,13,134,122,20,68,17,19,106,175,22,6,132,74,163,145,104,177,169,55,124,123,153,159,78,130,84,180,176,103,96,170,164,54,28,73,33,125,58,5,140,71,119,99,49,117,151,161,59,148,9,173,174,105,110,111,114,27,141,31,53,76,131,67,69,149,150,3,39,75,167,90,136,18,2,156,97,10,34,4,32,113,57,142,98,91,1,11,63,38,50,128